
coffee
232323
florida
cricket
stalker
penguin
manutd
01011980
dilbert
swinger
marcel
krishna
power1
fabian
rereirf
whisper
abraham
marius
nickel
loaded
reload
spongebo
porno1
chiara
yfnfkb
krolik
vbkfirf
11091989
almighty
01011973
31071990
forlife
28071985
password99
13021984
thebeast
sliver
riverrat
23031988
741258
07031991
04121984
bisexual
fresno
29091985
258000
01091980
paradis
18071981
11121981
03061991
nothing1
31031985
123412
www123
worlds
05031983
15091981
aerosmith
13081980
carajo
25051982
18091992
maximilian
grapeape
sabaka
fireman1
zxzxzxzx
31051981
110880
101084
01111985
polniypizdec0211
jewboy
30081985
260290
gypsy1
cynthia1
bball1
09061972
juggle
coyotes
210191
1Jennife
100988
10081977
proteus
newstyle
jackso
28011975
25061976
170392
123QWE
120589
06101980
spartacu
apathy
04061977
aceracer
221183
130783
08061979
mormor
Slipknot
270890
110283
canabis
Jennife1
100489
julies
hellomoto
dbnfkbq
Monster
Edward
300383
27101994
24101997
shlong
screwed
manisha
intranet
flatline
dmitri
bluemax
19031978
weaponx
alpha06
28111976
196666
wiggins
davros
SiMHRq
19021976
100778
gimlet
fvthbrf
SANDRA
26091976
180179
17051972
03031970
020586
wwfwcw
trstno1
moroni
mellissa
johnny69
34524815
290580
180489
18041996
13121977
05101996
purzel
nitehawk
dima2000
beulah
berbatov
310177
160874
060492
04111976
zombie1
shayshay
pattern
nougat
mcgrath
madera
16021969
qqwweerr
duplicate
buddy7
29101972
290694
22091997
210979
010572
hashem
eclipse9
Carter
755dfx
23091998
20041967
15061969
050489
031289
ser123
getreal
180693
180474
17031964
12111964
helpme2
210294
20071963
11111999
11021998
000021
rifles
number3
lavigne
falcon12
cheating
bodiroga
adult1
210895
161277
16041965
121974
11051997
050380
videogam
trillium
ilonka
halford
flaco1
chewbaca
amberlee
Sterling
RASCAL
456rty
147147147
011270
thetaxi
luvbekki
girasole
blessyou
activation
55665566
30102001
19111961
15061960
14071960
14011964
05051966
030670
yoshi1
trrim777
torito
percussi
mistral1
lalala123
konfeta
grudge
dimitry
briang
bakesale
30051964
260697
22112000
22111964
20011958
12QWaszx
101988
10041962
051196
010397
zhv84kv
winbig
wanadoo
shelle
sex101
pisello
mandala
kabouter
dudley1
dctvgbplf
bismilah
barrabas
agnostic
Hendrix
Gfhjkm1
270398
200498
195959
140963
13102001
11271127
112280
theboss1
rocker1
pudder
petrenko
michael69
maywood
kirillov
kalipso
k1ll3r
jacobo
interrupt
iddqd88
helpme12
havelock
gypsum
filipok
faceit
bears2
bassboy
as12az23
alleyoop
Itachi1995
Camaro1
26111961
23081956
220457
180497
123456789*
05041961
05021959
01051953
toller
tashadog
sandma
rollon
polepole
passworld
nation1
nano93
lovesu
keane16
john13
fybcbvjdf
clark123
blueprin
beergod
HEAVEN
Children2
951753852456
290368
270377
261259
19081954
15061967
13111966
1234tp
10091966
071162
030556
yurik1
yue12345
snatch1
sexygurl
seducer
medstar
marron
march24
lolikas
leardini
jonata
ian123
hoenix
doorstop
deadspace
cumsluts
chelsea5
bobhope
binnie
ajones1
adriaan
Eventlog
46948530
28102006
26021961
240267
151268
150360
140369
113300
110901
11081955
09072000
wilkinson
vektor
tungsten
thieves
thelast
terry13
tantalus
sheetmetal
rubycat
ozzy69
mscoreer
miriam1
mettle
metro123
mcsemcse
julian12
hades1
gilgalad
fjodor
facundo
everex
dima23
derbys
crowcrow
coralee
ceiling
ballistic
asdf22
asd777
appmgr
alex68
aik123
adriano1
access52
Tiger123
CBR600
Abcd123
411111
39713971
351218
281978
231985
1Private
198506
17041954
15081956
121484
111007
010462
zacate
www111www
vivid123
timbo1
solari
shriek
sexlust
pakito
neznayu
natoma
myshell
misty7
melnibone
masaya
lynxlynx
ltvbyf
love07
koschka
iroquois
iloveeri
househol
gjgfgjgf
gesture
floyd2
drewdog
dressy
disavow
dinghy
custom22
crystalb
buschi
arsena1
april2000
Mark4738
BOOGIE
A1R2I3
987654321x
848975
55695569
486759
25072507
221200
20061958
1mouse
1Pumpkin
19062004
16042010
080809
060806
01081950
wolf72
valley99
turbert
trn701
timoti
terminix
tellys
taximan
speedyg
skipper3
shenjian
shamar
saloniki
robertor
rfkmzy
poopy123
podolsk
plumb1
piiola
olololo
oldforge
moustique
mnxe2v5b
mistyblue
maxwe11
login123
kritter
journeyman
jebise
james55
idbehold
hotstick
honey99
haarlem
greyston
fuzzyy
footix
dhxre0
ddamulag
cornflake
cidsinga
chexrice
cfabyf
carmen01
cali4nia
bigtimerush
asfab234
amberp
airless
WHITESOX
Scully1
QUATTRO
Harmony
555321
420316
390000
300967
300571
2green
280764
28021954
26082006
25041950
220608
21072000
1win2me
1hustler
1Sister
1Donald
1Always
122987
11032007
10020030
06121959
050504
03chevy
020959
yovella
xy27e64
wmimgmt
whitedragon
wdc7367
vicksbur
vfrcbv01
tampion
tacomeat
sumitra
soulbro
softball13
shotiko
serkov
sergey1986
seaseasea
samyrai
sallysue
rolande
rock66
rjirf13
richie12
reggiani
rbhbkk12
pooley
piroska
ortsac
olimpo
oleg2002
nigel123
nhfyrdbkbpfnjh
netwlbs
molinero
mistero
milaska
mbmacher
mbeach
maracaibo
manuele
lena1991
lehbkrf77
ledzep01
leaddog
lanyon
lanrpa
kozina
kolo__1kolo__1
kelley1
kbybznjrf
juliajulia
joliette
india2009
ilduce
homer316
hawaii2
hammer21
gjhj35
ghjcnjZ
fredhead
fish2001
exwife
ellegirl
ebonysup
doover
donny8
dickel
comm3000
comeout
chingchi
charliebrown
bunnyboy
booger99
boingboing
bodice
blue09
bashing
aylmer
antoinette
andrewh
amaya1
allan20
ali.aliev.
alberti1
alabal
adventures
SCOTCH
Krypto
Inuyasha
Flashlig
88888888z
5432167
35wolfen
29302930
281211
26091950
260307
251270
23532353
201993
1hawaii
1a2s3d4f5
19721991
15871587
15101957
14071953
1231236
122586
100647
091877
090552
07062005
060862
060758
052177
000327
zorro3
zooey666
ydderf
yankee11
xaviere
writer12
wooddy
wilee1
vv8181
vegasbaby
vbhe-vbh
tutankamon
turtles1
turtle55
tiggerrr
tiger51
theslut
ten2620
tarlton
sydney3
svensps606
surfer21
superman5
sunrunner
stud12
stephs
soljah
solelove
skb100
sixmob
sharhan
scunthorpe
scubys
sasha55
saroja
sargrego
sanya1992
russell5
ruddle
ritchie1
qw475869
population
pokemon3
pauduro
password2009
paratus
oorlog
onynta
nrutas
noneck
nitlion14
nissan2
nikolo
newmark8
neptune6
necro666
natashia
mxracer
munchin
mrdata
moyasemya
montejo
mindysue
mightydragon13
merlin4
megadet
mecca1
mcatis
matilda2
mark68
manasi
maiden69
maddyy
m30set
live2000
landry1
kitcar
kiara21
kgi7952
kellybrook
karukera
karina1996
kanukanu
kanimni
kahakk
joules
josie123
jetcity
jack59
integra91
insidetm
inlove!
impala66
ilovehockey
ilchris1
ideal1
honda2003
hockeyst
hell2pay
gremli
gerken
gaiety5
g555555
fudge33
fondly
fixitnow
finman
fiiboxq
fascism
faqsam
ets0997
elm001
eee123
doublepl
doriany
doors123
dimon1986
dima08
destinat
denethor
dead11
dartan
cytuehrf
ctqxfc
coreyv
coltrain
colone
clara99
cepera
buddy61
boston14
bonnett
body123
bikeshop
bigcock2
belka2011
beer2007
battlefield3
barring
barili
audis8
auburn69
asuka1
anton87
anshul
amber25
adria1
aaront
Viper2003
Victor99
Teresa01
SEXMAN
Rewind1
RAYMOND
Jess23
GIOVANNA
Ferrel
90469046
832065
7718bill
6619371
600111
543678
4robert
45082675
43224322
42522086
3zwhale
310857
282728
26844862
260596
2525756
25031948
2385bu
230147
222424
2198143
214822
2105198
1z1z1z1z
1scats
1Sexsite
1Lindros
1Courtne
19881959
1987854
197912
16051989n
152400
1235246
1234val
1234sd
122606
12241983
122111
1182093
113948
10091952
100291m
071992
07051999
052583
041869
032525
01071968m
zx454888ebay
zmichell
zentenos
ytdbyrf
yllana
yendis
yeahoh
xardas
wolfsong
winter40
wilson76
vonmises
villie
vfksi2008
vera1959
vareniki
valami
ushakova
urmila
tweeden1
triste8
treasurer
topsy123
toomtoom
tomas2000
toesma7
tigr86
thebud
tg1445
tempting
teenbaby
tberry
taxgod01
tanya1994
takkat
superman6
sugarloaf
suffield
suckerss
spikeme1
spiderj
speare
soxrule
south11
sniper23
smudge19
smstip
smithd
slayer23
slapahoe
sl33p3r
skywalker2
skorpion12
skinny1731
sisusisu
sirtony
shreader
shimek
scrap2
schakal
s77777
rubarbo
ru55ty
rosebud12
rosalee1
rizwana
rimmel
rileydog1
riddlers
rfyfhs
redbuds
rborsellino
razvrat
rapper11
rambo14
rajaryan
rage9999
race69
raajkumar
r1u2s3l4a5n6
qusw88ed
qazx1234
putchi
pottery1
poopoo0
poledra
play2000
pipon333
pidarasina
philmil
pete69
peace4
padre1
paddy999
oracle8
oldmanrh
oksana92
okonel
nokcor
noirdesi
nick98
mussels
musa777
munising
moto123
moneytree
mojada
moguib
mike2005
mihamiraeva
medena
mckk60
mcculley
mcb9848
maximin
maxima49
marbig
mantek
mamolal1
mamanina
maggie27
mag052289
macfee
lowlife1
loveonlyyou
lotus49
loploplo
locost
ljhjityrj
liderli
lexusls
lena85
lazio1973
lasseh
lana5262
krepper
kosmas
kobzon
kj1998
kiev77
ketterin
katya2000
kaseyb
karpovich
karime
karakorum
kalpol
kallie1
juventusfc
juve1897
junkey
jungfra
jtjtjt69
jringo
joshdog
jimbone
jewells
jensich
irina1981
intowebx
integrar
hoschi01
hell1ig
heisler
hastyle
harlech
harami1
halo85
hairy111
gurinder
guadelou
gtht;bde
groover69
gotUnow2
gosha2010
google.
ghjklf
gbxeubyf
gamma12
gacker
fvtkbz
futbol12
fuhbgbyf
freedom101
france9
flip4321
flavio2008
fender2
fearsome
fcad123
fatsack
fall2004
fabie2
ewells
ettore1
eriley
ellene
edogg1
eddie56
eatdar
dungog
dsds232
drummer123
drib3412
drew32
dream666
drag-on
dolly15
dogman21
demann
delhi123
dandy1
dan12dan
damon23
cutesy
coyotes1
costell
comedown
combie
collin2
cobradude
cnfybckfd123
cliffb
cleber0258
chris867
chocta
chester03
chehyy
chaoscontrol
cfycfy
caulfiel
castadiva
carrill
carmelin
c912345
bumsex
buddymac
brings
breake
braker19
boo777
birdturd
binkerboo
bigassdick
begzod
bbruins
baunti
badgirlz
b17p51
audiolin
audine
as12344321
artem99
artcar
araltam
anu812
anitaj
anabel1
amore3
amberg
alonso2010
ahmadjon
a9517873
a6009864
a5c19bf56
Toonarmy
Telemark68
SUSSEX
Rabbits
Qq1234
Nopass1
Nikitosik2011
Mulligan
Mirror
LL?sning
Issa1179
Indira
ILUVXXX
Help1234
Griggs
Gggggg
Eightee1
Cheater
B7xj8978
Andy1974
AnCoNa
998998998
963123
95flhr
951753258
9504015
89128112022
84232002
822222
8106747
80fMWI00
80955576702
80335292
7arundel
78963215
772505
766877
763200
7583469
69dick
686864
66587385
656258
631231
595653
5879523
5850594
5588360
5355680
523456
4nothing
48854885
465465465
46514651
441100
435484
42lalaharris
421022936
413800
4122845
4061982
369951
36983698
3655198galka
34723472
311965
311009
311004
3091980
2LiveCrew
2807195
28031988j
2769205
2742551
26021952
245245qw
240219
236210
228800
227158
2148414
2121972
21111986m
210403
210194n
1zqa2xws
1forklif
1cutedog
1chino
1Springe
1Civic
1Animals
1993333
19901801
19823006
19731991
19540407
190847
190785m
17601760
171969
16859010
1640520
1638nb
160390n
151878
150650
150502k
150502
14k1064k2
125521125
123059
120vAC
112587
112233l
10531053
104050
101596
100428
098qaz
09122004
071577
07082008
06407lgd
060406
052446
05131975
05121945
050585j
042900
042685
040991j
0343866
032080
032008
03111949
03012009
02amazon
007799
zxc987
zorba1976
zipakazipaka
zerokl
zeke1111
zebra78
zebra21
ze2vokpb
zamunda
zafarbek
z39c7gu
z123789
ywUhN8
yw46vw72
yvonne75
ys8m4fms
yrayra
yourwelc
yoshisa
yjhvfkmysq
yflhf158
yb5xgwmj
yataruba
yasuru
xxxneves
xedfr123
xc9421
xQto0BvXHqo0
x4zad7v3
wranfioc
wolfie76
wizsterd
wind01
wilkeson
wien59
whoyawit
wguthrie
westcoast3
werimus
wegotyousir
webnet
webb23
waynebo
wavisin5a
warning123
ward12
ward118
wannaplay
walls1
waffex
wadimka
w48564856
w2ftpnew
vovan87
vladdada
vladanko78
vjyjkbn
vishvjit
virtua7
virgo66
vhh123
vfuybnfajy
veron23
vbrown
vatikan
vanova
vadim1976
v8super
uvarovo
utrckb
uswpjc23
ursohot
upstair
unodostres
underway
ubbernoobz
ub2fat
u87u87u87
tziztziz
tyler2903
tuscl123
turkey101
truncate
trout6
trishstratus
trimundial
trigg3r
trevor20
trent21
trekker8
trek4300
tommcl
tomkocher
toledo2
tnf9552
tlv01tlv
tjlavin
tigr1234
tigmor
tigerlio
thexmen
thashies
tessdog1
tenzarin
tensleep
telmac
telecaster1
tefwvb67
teemu1
tedtest5f77
teddybo
teddy007
tazzy65
taztaz1
tazman14
tatyana1990
tatersalad
takennik
taijishio
tabboo
t1s8kl51
systalys
swKJKtFv
sv1486
sus1963
surfeur
superstar7
superia
sunshin1
sunke2
sunfire0
summerer
sukaty
sudeep
subzero4
stuffle
stscts
streetwise
streetlu
stink123
stewie13
sterrell
stendec
steely1
starion9
stalkercall
ssuuggyy
srebmun
squam69
spudbud
spr1ngf1
spiderxvp
spexmeng
specman
specjalista
sp1d3y
sorok4
sophanna
sonicboy
soni2009
son4276
solomina
solocam
sockendo
snow36
snobel
snamibog
sn5116
smoke23
smilin1
slava1988
skin2006
skeege
sk2098
sivaguru
sistera
silvergold
silmax
signy2
signum29
shonmow
shippe
shebagir
shazaib
sharon03
shalen
shafisa1238
settembr
serveyou
serpente
sept1976
selmas
sedakova
security3
secretsp
seanman
seahunt
scurge69
scree85
scomin
sciences
scarface69
savagegarde
satch83
sanicle
sandra27
samtron56e
samken
saibaba12
s0i1topk42
ryanki
ruth123
runnoft2
runner17
rubyred11
ruKh7RJM
rrrrrttttt
rowans1
rodpod
rodolive
robski25
rntlxrgh
rley69
rkfdjxrf
ritz69
rickyn
ri3fur4m
rgs6559
rfnhecz2006
rfhfkbyrf
ressay78
renan12
regrib
reddog97
recacc6
reaperdragnfly
reaktion
readings
rcw9999
raptil
rapers
rapcity
rangers01
ramone12
rameshs
radmir1987
radeedaz
rLCePDq9tW
r3sidential
qwjb2ifb
qweqweasdasd
qw78as45
qjreukflscbkf
qdwLRSfy9ddqqGbsyx
qazxsw111
pword01
pv3948111
punjab5
pukjes
psyops
psygnosis
prstlj
prs64540
prodam4
posters13
possum7
poptropica1
pooparoo
pony24
poker22
point66
platzz
pjj123
pipkingsx
piglatin
pico60
pickuptruc
pib0101
phux3von
ph15drcm
pgf227
pfjGkad
peter141
pete76
perlin
penny222
peedtaorht
pbybuswe
pawel123
pauly009
passaj
parus2
parina
pandour
pam1999
paladin18
packers0
p0o9i8u7z6t
ozman13
oxyjen
ossitmwg
orin1227
opeushit
op0000
ooo12345
onopko
onlylela
onea5678
ololo228
olliee
oletubli
olesehka
oldsmoke
okeroker
o3e4p0r5
novigator
noutbook
notachance
norital
noremac18
nolasco
noimport
noddlw
nobo21
no6503
njgakjee
nipumuk
nihvanuhva3
nick1996
nfymxbr
nergal8
neonecta
nekineki
nehrvtybcnfy
natty5
naruto1234
narret
naoyuki
myheidi
mustard9
muffin77
mudcat1940
mudar12
mrsatan1
mrphish
mounyain
motel12
morowind
monster45
monsal
mojo68
moesmand
modoru
mm6411
mm0719
mjc123
mitchbitch
misty578
missmarple
misha1974
mirrorba
minton22
minotor
minexcc2
minds1
mindaugas
minatoku
miller3131
mika1983
mihaik
miguali
midnight11
michal17
micett
mh983436
mesousa
merbedes
mennonite
media007
mechta1982
mdwstmdw
mclarge1947
mcdata
mb300ce
maxim198
maxim100
maxdr1
mattpuss
matt7777
matiza
mathy1
mathoma
mateus10
matawan
mastersi
mart01
marrodje
maria777
marekmarek
marbert
manikhan
mamontova
malanga
malachii
makstrifonov
majadero
magicmus
maestro9
maesmith
machupic
mac777
lyalechka
lutsch
lunya1989
lufc1972
luders
luba1973
ltqvjc
ltamntsp
lrllrlrr
loser33
lonjoe1
lodmeube
loctite401
lleennaa
liza79
lions44
lionel30
lion74
linseed
linda1980
lily2013855
lilwayne2
liezel07
lexa2709
leurix
leonan11
leo1307
lennon2
lelik1979
legran
leebowyer
leccape
lboggie
lbf3041
lavrenti
lavagetto
larry1234
laplant
lapin77
lance02
lamora
lachuga
labrat1
kycr1000
kurenai
kuklina
kuka1970
kt2000
krella25
kot1234
kosnovloh12
koosie
kolyma
koljius09
kokeiv
kiwi2004
kir1234
kimymkim
kilppari
killermiller
kiffy02
khmer1
keyhoppe
ketorol
keredker
kenji001
kcufesroh
kazantip2012
kayli123
kata69
karup1
kartashova
karamzda36
kappakkg
kamnev
kakulll013
kakakiki
kairos1
kabayo
kaawaa80
ka3tie
jwagner
juxru47
juridic
jura25
juiopp
jstreech
jseward
jrrn0224
jp95677
jou812Z
jossette
josie99
joseph14
jono2208
joint43
john75
joedocbc
joebot
joanne1956
jls1816
jlb5597
jinete
jimmy201
jimmi5000
jetta85
jett01
jetboots
jessebug
jerkjerk
jbrick
javier41
jasper02
jashof
jasemi
jascat
jared5
januaryi
jamie16
jacotc
jackiscool
jack1973
j2440102
j1111111
iyiyuce7
iwyhFX
iwasafi
iv8mibw3
irocman1
irished
iris13
irenemicah
ira1999
inna1961
inliner
inedible
imortal12
imh1605
iloveyouall
ilovecody
iliketo
ikaiwesi
igor3x3x
ienjdf
ibhkbvshkb
iamalisa
hydroo
hungvluc
hung10
huffines
hrider
hp12345
hoosier4
homer30
hoebele
hockey04
hm3doc
hiraga
hikaru123
hh0698
hgdown
hervine
hercules50
helen28
heks123
hekmysqxedfr
heaven78
hddra9ht
haus34knech
haurua
happydays1
hansuliini
hammerer
hailbob
haggai
haberman
h2so4h2o
gvl372
guscjf
gtrplyr1
gtcnjdj
gritter
greggt
greengrapes
greaghra
goodbye123
good48
goldsnake
goedele
go4blue
gleaner
gingerto
gilahue
gigolo22
ghs65ebj54
ghjcvjnh
ghbdtnjc
ggjjwgcm
gg20bwhb
gfcgjh
geri86
gerhard7
gennad
gazebo2
garcimor
garcia13
gadget699
gSYF99mI
g4ewtayv4
g0093e10
fusion12
fun111
fujisima
fuckuass
fuckmilf
frost666
fritz75
frenchfrie
freestyleonline
freesty
freakky
franci90
fpfxtv
fourweddings
forvis
forgeti
forest59
fool2000
fofafofa
flutie12
firstmillion
fiezc58
fideli0
fhtcom
fernando1981
felixxxx1
fd546c11
fatboy11
fartypoopoo
fanbik
fahbrfy
f69a46e619cf
exklusa
existence
ewelka1
esbereba
eretik54
eod1555
entuziast
emmerdale
emmarae1
emily03
emad66
elliott13
elizza
eixkubber09
ehcc1049
egerton
eejit1
edbanger
eagle335
eadesloge
e345ok
e101547
dyllanm
dxtvcbkf32
dvrefvsd
dunkdunk
dumitru1997
duffee
duckyfuc
dtomdtom
drsuper
drjulius
drewwild
drew55
drew1969
dreamline
doug50
doroschenko
dorema
donomaryamir17
donkey88
donide31
dominikator
dolbydigital28
dogegg
dodge100
dmrsx4
djwells
djgmvbotj23556desf
dirceu
dira4500
dinesa
dimon2007
dimess
dianerson
dharani
dgonza
dget46387ed
dfkz1993
dexter21
derden
den1978
demayer
delladow
delhidelhi
decoys
decorus
dec1978
deboslim
deadl1ne
dcs123
dbrnjhbz29
dawgcak
dawg21
davseotli4no
darylc
dartking
darina7075
danu326173
danniram
dannette
dallas85
daffodil7
daddyslut
d4i1a2
cylest
cychan
cw1234567
cutrina
cutoffs
cutestuff
ct11sj
css789
crazybobr
cranfield
cp30344
cowgirl1
cornwal
coolly
cookyman
consolata
compton6
colorado20
coll123
cohiba65
cody00
cmoney2
clutch41
clamboy
ck77cxj2
cjab.irf
cindyc7
cind3r3lla
chulhee
chuddles
chucksux
chrisar
chinstra
chien12
chicki
cheeser1
chauffag
chapie69
change8
champ08
chaguanas
celerons
celebris1029
cc1178
cbrsloth
catl3331
carsey
carovigno
caromked
carlacarla12
carian
cardinals2012
carbone12
car2man
caprice7
canete
canardo
calvin55
calibra1990
caindog1
cactusb
ca0475
byteme12
buzzurro
buster29
burich
bundy111
buldoser
bujhm12
buffy02
buenaonda
budwil
bsivad
bsisko
bsboy00
brutas
bruce6
brookl
brichy
brandy30
brain42
bowness
bonbeiro
bolang
bohdan1996
bohanan
bobglenn
bobdaman
bobby777
boardom5
bmw3187
blademaster1
blacklimo
bitchen1
birgetta
biotex
binky99
bink123
bigdick3
bigdaddy704
big500
biak9770
bi080906
bhbyf28
beube99
beto22
bernardina
benjamin5
belka2010
bedford2
bboys620
baxccim
batyrtashev
batata70
bastien8
barbie53
baggi5s
badge1
b4l5e6
b2cba7aa
azzara
azsa3701
aylesbury
avellan
atmost
atdhfkm10
assface1
asopry
asko01
asc001
asadkhan
archon1
ap52ri17la57
antike
annuta
annakim
anime666
anikepalli
angela*
andyd1
andrewx305
andrade1
amitaf
alonsos
alconn
al2020
ajttja
aikendru
agruurlowrjm
ago1950
agent08
agatas
afyfujhbz
acepeter
abanana
aart12
aa194111
a140985
a1313a
ZC78nm2a
YfvkX8c6
YAH6139494
Wetone1
WaPBbs
Vwxyz1
Vbhysq
VAZ21099
V123456
TrFVeHcYvg
Tommy112
Thdjkr53
Thanos6
Taffy1
T7SJnFfD
Sportster4
Splendid
Shifting
Saurabh
Saigon19
SWANSON
SLINKY
SINKING
SAOPAULO
SAMEDI
S246855t
S1syphus
Rottie1
Rjkzuepm1991
Ramon118
Ramadan
RadNib
RFAawnK
Quick2
Poma123456
Pokopoko
PgMTVA
PHAROAH1
PANASONI
Orochuban
Ophelia1
Nokia6230i
Nandush
NORT8226
NARUTOZ123
Moskalenko
Mortensen
Milleniu
Mikki1
Mamba321
Maggie8
Mag3llan
Madsexparty123
Lululu1
Lucky67
Local1
Lizard69
Lincoln3
LickLick
LJzN3nEA
Kornet67
KobeBryant
KnowYour
Katie69
Joed++?8
Jasper5
Jan-69
JWC11758
J10231986
Howdy99
Hooper
HokeySmo
HdMycK
HSD20898
HAKKINEN
Gunhead
Guardians
GaD0penS
Ga73bFt7
GAS4MAN
G9JNjq
Florenz
FkV4Th2QXmR7c
FIGHTERS
Evader
Echsen
EAJ0708
Duckette
Duality
Dima2008
Diana2001
Designs4
Denali25
Davout
Cypress1
Cwo9IsXV
CEZHBXTDFKFHBCF
CECILIA
Boonie
Boom1111
Basenji1
Aureliu1
Artemis0
Almond
Airborn
ARGENTIN
AHOBOKEK
AH-DPqd9
A4QD5p
A210800
9iq81n7a
99spoons
997227061989
99253611
99129912
9890ik0
98269826
979070078
97590643
9754367
973sixes
960150
949698
9458480
9328866
929592
92552461
9241033113
922592
9200068
911021
910824
90859085
9052004
8n32bA
89274602353
8925941
877454
8726321
8645846
85aH5q8oqMBEk
8576jf
852456000
852031
8381483
8323786
8297632
8241972
823135
822009
8121999
80982427781
80957766
80668668869
7fduecnf1993
7ZJ8umRSb8F
796813
789456y
785809
781698
77Tn4I1quRMlQ
7777777rus
775cg97
7531590
750728
742574
735800
7299535
7275bone
721023
720122
71L4g2TYhb2LU
70Rl0hCX
6zydfhz
6977757
684778
681963
666513
66616661
663966
662660
6606779
6567030
6543850
6506310
64dreem
648515
647220
6352116
6311082
629312
6151975
6110mette
6091991
604796
5johansson5
5X4377W5x
5922090
589236
588632
5885610
5818084
580301
571992
570429
568bd7gb
567800
564813
5621476
560802
55564213
5542992
552850
552014
5462843
54321qaz
532872
529603di
5223780
521903
5121993
5119256
51102225c
5070507
4miles
4T49EW
4890925
483Er59c
482999
4815162342e
4743112a
4727199
467030
4611041
45pistola41
450123
4486696
4451639
43599999
433203
431467
42zaphod
420601
4147906
4101977
4057602
4044761
4042425
3jordy7
394Uaeni
3874864
3873516
382001
3781041
377901
376987
369onfir
369741p
3619752
360460
36042051
354654
3501jm
34ortiz
3453edsa
33oYDKRra6txM
3393848a
3353553
333987
331555
331114
32hunter
3294556
322718
321PAL
313326
312800
311325
310582m
30rh73
30april
3004969
300393m
30011948
2melan1e
2YWiUvAW
2L00se96
29972997
291186m
290596kl
290396l
281097270
280519951703197
276263
271622
271143
27061978a
270390m
2687dh
2682118
261116
256112
252638
248824
243211
24242456
24061984u
24021991q
2393724
238507
232554
23189170
23122010
230920
23041947
230295j
22denis
2291081
227224
223090
2215363
22100023
22061995j
218489
214117
21111987m
21101992m
2107356
210694m
210456
2098388
2041986
2006ford
1q2q3w4e
1porky
1marco
1love76
1kingspass2
1genesi
1db0jz10
1Tortuga
1Sticks
1Start
1Sioux
1Shower
1Payday
1Hanibal
1Butthol
1Bates
19cowboy
19TorsTen7
19990405
19900708
1984sasha
197736
1976999
1973197350
1969..
19671555
1966427
19662ho
1953007
195256
1946471
193393
192018
19108910
190wdc
1840919
182581
180275n
17gjgeuftd
175777
172125
17091940
170206
1701170
169luver
168604
1641854
159z159
159753123a
1580509
157515
1518341
1518252
15152392w
150894a
15041993n
150309
15.01.1998
145767367
140589m
1405067
14031989m
13rave24
13erocks
135421
135017
13370346
131288m
131212
13051988q
12tim34
12inchdick
12ax7a
12anth
1260811
124411
1234rod
1234fr
123466
12345ch
123456789vv
123456789io
1234567890Q
1221saper
121832
121690
12101987j
1209412094
120918
12031940
11922911
113717
11291997
1123656
112233as
11213267
11121992m
1111vika
111111zx
1103Ld
110207
10268856
102348
10191966
101245
100881n
100681m
0efacb0f0
09876a12345789
09300105
09291988
091284u
08region
0868385
081563
077523015
072688
072603
07081957
06scal
062121
060592m
05harle
0573135143
052540
05081984j
05078082
050221
040886j
040792j
0407184
040405
031210
030710
030391n
0259146
020709
017217
011325
009144
008945
007gonza
zzx87jch
zzl.dzeq0n
zzan9180
zyzate
zyz1982
zysecvfyehfvs0
zynxlde9
zygoptera
zyfikfcxfcnm
zyc8824
zyb829
zyauahmh
zxz733
zxqep5cq
zxme9764Z
zxio123
zxcvbnm761
zxcvbnm56
zxcv1947
zxclon14
zxc1234567890
zxasqws1
zx2a01
zx0000
zwtke.cmkexitxtvujnjdk.357951
zwarf25
zw272rv22
zvvzvv
zvfqrf1964
zuza.lara
zuvedra4141
zuridashahrul
zuprem
zumzum2
zulu555
zukovskaja
zugi9m9d
zuCATeSAg
ztmm6lxg
zthhwmwi
zthh2MpEaoWZr
ztcnmz21
zsefvb
zrmsssbx
zredaj06ppz
zq96ACw
zq4iq6w
zpwjjhxm
zoxyrfta2
zouzoulini
zory1985
zorin1986
zonedeve
zomzom7
zombie6
zolopok
zoki.8787
zoi7smzf
zofima567890123
zoemonster4
zodiacx
zo70rr21
znk1988
znamenram93
znR2r5Db
zmo220849
zmhekbn
zmeev2106
zlatanibra10
zlataez98
zl7iqfg
zkzrb3
zkysr2
zkfgecbr
zkL4HbTZ
zkBafcZg
zk154y
zizu007
zirf297
zipzac
zippy982
zippolad
zippo41
zipfers
zinaaika29121967
zimson
zima84
zijing59
zigam177
zifty1
zidane7021743
zi9876
zhp062nt
zhfnrfyeksv
zhev12345
zhetkizgenova_94
zheneq149
zhenek.tanya
zheltok
zhaojingli
zhao3680
zhainar1992
zhaga_al_kon
zhadyra.ongarbaeva
zgmfx20as
zfppr7
zf5e569
zexgvgwc
zews77697
zeusol
zeus2153
zet56442221
zerohead
zerents
zeppelinpnb
zenfirahaibullina
zendiman242
zem212761
zelot27
zelle413
zell4ka
zeleboba0864213579
zeke666you
zed6031769zed
zed4861
zebra678
ze2ThT8z
zdor3138
zdk857
zcnjvfnjkj
zcexrfrhfityfz
zcb12026
zbeatle
zaz09lucky
zax685
zavpro
zausenizca5
zaure_maya
zaryop
zaryba13
zariza16
zaraza17235
zara55458
zaqsxg81j
zaq1@WS
zaq12wsxcde3456
zaq123edcx
zap15a26
zanygabi
zanochka
zanat_1985
zamriy
zamore456
zama12
zalypa5129
zakir1981
zakdik
zaiy070
zahrmar
zagir05
zaecha
zadrrz1
zabota1
zaalsordia
za38t5
z_yulichka
zVda2qK6
zRyC6yvf
zOTEKYZepaC
zMT9g3Zv
zGb1u6s0
zAJIbUxI
z9e0sd17w3
z9VUxo
z8aavqa_aabz1qge
z8a6w8l
z7h04afg
z7eWX28o
z76pan91
z713ay
z5kjrj
z5c2Ra3N
z3nm4st3r
z260804
z20chio22mak
z1upygpsf
z1k8iqbd
z154126
z00tyz00
yzu65wfu
yzOCuRuVojO
yyu17w86gyyu
yxyo18l7fa
yxcvbnm196
ywRclrcY
yw7c8ktv
yw260290
yvxh4ylq
yuyu8661
yustina_rihter
yuserneym
yuschenko
yura654
yura17051990
yuliyaihenko
yuliya_belizna
yulia111
yul74700
yul1994
yukomasaya
yu02061973
ytvtw90
ytvfzrerkf
ytron17676
ytpfxnj1
ytlfqvytgjdjl
ytlfkm
ytghtlcrfpetvjcnm_
ytdktpfqrf
ytdfhbr
yssy138772
ysq7uuv0
yshdfyfytdthvfqyl
yra1963
yr41pkryratu2
yqwjaebdhz
yqg1ka
ypuuswtk
ypiihlbz
ypecxrzf
youssef@@@
your1sexy
youngscar.4
yotSuiwMQ
yoshizawa11
yoonsik
yoman1jr
yoasfdf
ynkazcuc
ymqsn5kmpwep
ymamiQucEgu
ylvurmw
yllekneb
yliya12
yledauta
ykg8pqb8
ykEtyPyDImY
yjylemo
yjvfh210679
yj50c00
yiry24wd
yippeekia1
yhr682
yhfdjextybt
yhdfrnth
ygoogy1
yftvybr22331
yfrbjitymrf
yfpvenlbyjd
yfnljh88
yfnfkb123
yfnf7619
yfjnvff20021999
yffirg
yfcnzcntrkjdfnf
yfbuht2dfvgbh
yf1yicpb
yespica
yesitsgot8
yesclub
yes28091989
yerodula
yell0d0g
yelemarekai
yeehawaersa
yeehang199
yearning8909
yearning8514
yearning5161
ydo69do68
ydjwtsynj
yddad22daddy
ycheba2010
ybrjkfirf1999
ybrjkfgbnthcrbq1
ybrbnjc258
yb9eimw8
yayjobs
yasia13
yaryag
yarmar
yareth
yankeeswidewear
yankeesramkumar
yankeesnocondoms
yankeeshihello
yankeescatter
yankeesbe52y1
yankeesDjeordjes
yaniv11
yana_harlan
yamatake
yamaha2008
yakimenko64
yah7ub3n
ya6rhg
ya19ss8ine
ya1703
ya10a11a1991
yYLaU2
yWdery5
y9884876724
y7r47BG23L
y7du54syp3
y57k76hq
y56tr6rn
y3594148
y2jc7zwq
y198330
xzma77
xzidio14
xyzxtcbw
xyz786
xyyzaaab
xyy459
xyonolca2
xylfhr34love
xy001311xyxy00
xxxdozator
xxxbabes
xxxSiUHs0t1UI
xxvLYaRUujaRc
xxv25sn99
xxt828xxt676
xxsczidkup
xxh9jSvLxNjQQ
xxPZ71HLkQkoQ
xx807647
xx1ukX0nt3902
xwMKbo
xwKp7x48xK
xvfaw2nu
xuxu123
xuu52p
xtrfyjdrbhbkk
xtjtdph8
xti6329
xthtg1960
xterra11
xtc56r
xtblqxw5
xt7iyva4
xsqoebvc
xsdcvfgb
xruawuph
xrTe32
xr2005
xpub83fs
xps5714
xploiter
xpdc1234
xpcrzwhf
xozyika98
xompaq
xolbux10
xodox1234
xo7rvezt
xnder45
xnYu8F
xmuik4fv
xmnsjwzy
xlanae
xk7osz
xjrjkflrf
xjr9acxx
xj11jn19
xiqucetyih1964
xima1995
xicochi11
xichrlgs5
xiaoqiao
xhtrj42q
xhon07k
xh216gvf
xh1sjjvehr
xgrv7er6
xfrost
xfindingbinkers00
xfGcxSVC
xexelento123
xerxf12
xer0mem
xeo399
xenophobe
xelles2
xell1990
xeljhscm
xela111
xe2xmo
xdr781
xd6b837g
xcf6hern
xc8pct
xbrblf
xbmyex
xbear2004
xb5tdy5h4
xb1sxhlu
xavior
xaseet
xamari
xaRojuWOp
x_7cP51d
xYn4MRXI
xXUfhke6
xX2KbpnUjC
xVFm6r62
xR5A6bei
xN2838Si
xGywH9mb5E
x8y65fLZ
x7unF296
x7pe8yh2w
x6sNFXaf
x6m105z
x5383r
x4i3w4c9
x497uzir
x3nk38do
x3R4Sxd8
x369855g6
x2vx6yi7
x2ti7p6s
x2sanp10
x287sw
x1LLmQdLRaqRz5yx
x14iyta
x134791x
wzyfjv3c
wyslcwgj
wynysore
wyndchymes
wyf29q
wy6ztqsy
wy56qfuc
wxc456qsd456
wwwwww11
wwwHOMAwww
www33www
wwenfl619
wvpycdmy
wuttup12
wupertal
wtzfb3dk
wtglkz2v
wtbslrheai
wtavw4u4
wtEcYWox
wsx357edc
wsx3000
wsw2004
wsdeeder
wsa3557
writerman52
wrestlmania
wrbdScbq
wqhj2789
wq12as34
wpdktkfkd
woyzoiro
wowowee
wow171981
wotsamfq
worsting
wormyyy
wormixmania
wormhead
works775
workloger123
wordpass04
wop34nsw
woowoo20
woolly20
woofws
womackcm
wolle08
wolfpack36
wolf3841
wojtek23
wodzupgirl
wodqlohz
wobodsg
woRHM9qfiuNc
wnwz3s2
wnwcesd1
wnsdn8
wnf9207
wn24pn
wmUf8GU5
wlad1991
wkx9794
wkimber8
wjwhvyni
wjjbrld
wjforsberg
wj8y695zp
witchwave
wio12vi8
winner2007
winlet
wings01
winfeild
windsurf4
windston
win1ou
wimax6587
wilsonmobile0
willjosh
williamsuka8876
williamqsh075n1xk
williamhello99
williamAAA2000
willever
willempie
willed
willanddrew71
willam3017
will1414
will106088
wilier
wiliam18
wildmaster
wildflo9
wildcher
wilcrest
wiiboy1
wiferose
wiebels
wickedman
wicked22
wiacheam
whythat
whyteshadow4
whomilove
whoami5
whm8d8w9
whiterain7
whitefro
whiteace
white_ti
white9871
white124
white020493
whitby1
whiskey67
whimseys
whereda
wheeldon
wheatie5
wheatbre
whatup234
whatthe?
whatmeworry
whatif94
whatevr210
whateverzo-zo1
whateversweetsournoo
whateverpogisijoms
whatevergrill420
whateverAlbizzness
whateverAfizzy
whataripper
wharfi
wgjoutla
wg94536
wg36tgr1vqa
wg2tf9u5
wfgtkm
wf7wr8y54
wetmonkey
weterehfufy
western51
werewolf19051993
werenot12
werdevo
wendy-te-love66
welp2bad
welovelilalexis
well36
welkom00
welcomeyamakura
welcomeabeone
welcome_7
weir77
wega01
weezywe16
weepeep
weenbag1
weeewiiit
weeble01
wed41578
webdiva111
wealthy771
we5ftmmm
wdfvtk5op
wdc420jr
wdc1653
wbwacrac
wbushigaojian
wbsh04
wbhr1987
waynal
wavingflag123
wavecast1
watto007
watfor1
watermil
waterh
wasurenai
washuta
wasabiher
wart123
warsaw39
warrior91
warn8274xp
wargreymon
warez99
wanted001
want0n
wangnulh
wandh123
walter8541
wallasey
wales195
walek19910106
waldram
walaa1
wahyudi432
wahookid
wagner90
waggo1271208
wacki1
wa4slmbq4h
wa11deh
wZKRj217
wT2JO885
wPKMMOgGEhSuI
wEcaLufUB
wD26GZIh
w7zqqi
w77bu3jb
w61meun
w5gUZo
w3v09b54
w3lc75tq
w3cxml
w1204f
w0tw3or0
w0ts0n
w0r1ds0c01d
w05bc09
w01091992
vzv72bbh
vzu29os8
vzr78mma
vzp25eb7
vzb44ihe
vza115ob
vysociu
vyjujrtabhf
vyjujkjifljr
vyhudral
vwjettagl
vwjetta1
vvod1978vvod
vvnoy7dA
vv1ad4617
vuyacb43
vucyorsoxlnbthb
vuabcttm
vttsmgdmawmtrtf
vt7kvf
vstrog12
vsiachina_inoevsiachina_inoe
vr17v418
vr0tmnen0gi
vpolocc
vpleshoz
vp5qgxx
vovavova_6411
vovan28mik71
vova1993sereda
voudari
voss47
voshvosh
vorp1e
vorovolskymi
voronina11
voq2771
vonruggins
vonlg!
vonetti2000
volvo24
volk1979
volgograd1999
vohdgft
vnffgr
vnbenkb47t
vmirteat
vlv729
vladshiryaev
vladlen8888
vladish51
vladik96
vlad19910312
vl21041977
vkvkghrlvk
vkurskelolmen
vkflitrkfccybwf
vkd3kv11
vjztktrnhjyrf
vjxfkrbylbvf1982
vjucj2h
vjqrjnbr
vjq2csy
vjnjc4
vjkybz750
vjkjrj31108
vjhrjdrf99
vjhrj3drf
vjblhepmz1199vjb
vjbchance
vjaranik
vivid.3
vivencio
vivaperon
viujacg5
vityavitya210797
vitvikef
vitosik93
vitor11128
vitor100868
vitodamo
vitaliy1958
vital84
vita1996love
vishagi
virtuag
virizzo1
virgo111
vireatte
vipros1096
vipcenter
vinyaka9
vini96
vini555
vinfort
vimpeks
vimmerb
villus
vilipatti
vilan7899
vil1992
viktoriya152430
viktoria19921703
viktoralf
viktor89081
viksent
vikone
viknoeh
vik2449511
vijeta1
vightmay
vighnaraj5
viewpoint00
videosecrets
vidalocaman
victoriaairotciv
victoria0
victor#2
vickya
vick44
viaveneto
vi280599
vhuOM3MyghZH
vguard11
vgtu777
vgb867
vfvtghbdtn
vfvjxrf20vfz
vfvfkfhbcf
vfrkfel1
vfreiby
vfrcjy2011
vfrcbvbtdutybz
vfrcbv41
vfrcbv21199
vfrcbv198523
vfrc1991
vfq1991
vfpufhjdyf
vfpfq31
vfnhbrc41
vfnehsvxbr007
vfltkz18031983
vfkmxbrltdjxrf
vfkjdcrbq
vfkfyxer1986
vfkbyjxrf30
vfhufhbnjxrf
vfhueybot
vfhrtnjkjubz566
vfhnsyjdf06091993
vfhnfvbnybr
vfhnby25
vfcwmrrq
vfcnthhjr199777
vf198200
vezcenter
veterwest
vetervgolove
vesterkaer
verywet50
vertikal24
veronikka77
veronika1906
veromaur
vero2003nika
vernost_spny1
vernamae
verkokin
veritas8
vergratis
verdao4ever
venstarhug
venjdQas_030
vengertaz
venerdi1
velvit
velvet02
velfrb
veles007
vek1991
vegigirl123
vegaslife
vegas02
vecz1976vecz
vecz12
vectras
vdbet4x9
vd030463
vch1451
vcg7j12e
vbrjkfqjdbx
vbnz2311
vbnhfafyeirf
vbldtltd007
vbkfyf2409
vbifvfkzh
vbclx_1996
vaz21103
vatras09
vatanovrustam
vassilios
vasia1974
vascos2
vasavoi
vas6454
varnas12
varhau
vardan117
varathan
vanoxxx
vanikodzuliashvili
vanfan
vandgren
van80599
van321
vall0202
valeryan2010
valeron358360
valeri0
valekdv
vagner199314011993
vaf7ztvy
vaexe46
vadyshaprivet
vadichka
vad1490d
vaca1vaca1
vaari645
